c Generated map
c Size: 12 * 12, weights in range: 1 to 10, walls: False, with ratio 0.0
c dim 4 of 5
c
p sp 144 264
c graph contains 144 nodes and 264 arcs
c
a 1 13 5
a 13 1 5
a 1 2 7
a 2 1 7
a 2 14 10
a 14 2 10
a 2 3 3
a 3 2 3
a 3 15 10
a 15 3 10
a 3 4 3
a 4 3 3
a 4 16 1
a 16 4 1
a 4 5 6
a 5 4 6
a 5 17 5
a 17 5 5
a 5 6 6
a 6 5 6
a 6 18 7
a 18 6 7
a 6 7 9
a 7 6 9
a 7 19 10
a 19 7 10
a 7 8 6
a 8 7 6
a 8 20 1
a 20 8 1
a 8 9 3
a 9 8 3
a 9 21 6
a 21 9 6
a 9 10 5
a 10 9 5
a 10 22 8
a 22 10 8
a 10 11 10
a 11 10 10
a 11 23 3
a 23 11 3
a 11 12 5
a 12 11 5
a 12 24 6
a 24 12 6
a 13 25 1
a 25 13 1
a 13 14 4
a 14 13 4
a 14 26 8
a 26 14 8
a 14 15 4
a 15 14 4
a 15 27 6
a 27 15 6
a 15 16 2
a 16 15 2
a 16 28 4
a 28 16 4
a 16 17 10
a 17 16 10
a 17 29 3
a 29 17 3
a 17 18 2
a 18 17 2
a 18 30 7
a 30 18 7
a 18 19 6
a 19 18 6
a 19 31 5
a 31 19 5
a 19 20 10
a 20 19 10
a 20 32 2
a 32 20 2
a 20 21 4
a 21 20 4
a 21 33 3
a 33 21 3
a 21 22 9
a 22 21 9
a 22 34 9
a 34 22 9
a 22 23 1
a 23 22 1
a 23 35 5
a 35 23 5
a 23 24 10
a 24 23 10
a 24 36 1
a 36 24 1
a 25 37 3
a 37 25 3
a 25 26 2
a 26 25 2
a 26 38 10
a 38 26 10
a 26 27 7
a 27 26 7
a 27 39 2
a 39 27 2
a 27 28 1
a 28 27 1
a 28 40 4
a 40 28 4
a 28 29 4
a 29 28 4
a 29 41 10
a 41 29 10
a 29 30 2
a 30 29 2
a 30 42 5
a 42 30 5
a 30 31 5
a 31 30 5
a 31 43 5
a 43 31 5
a 31 32 1
a 32 31 1
a 32 44 6
a 44 32 6
a 32 33 8
a 33 32 8
a 33 45 10
a 45 33 10
a 33 34 1
a 34 33 1
a 34 46 10
a 46 34 10
a 34 35 6
a 35 34 6
a 35 47 3
a 47 35 3
a 35 36 2
a 36 35 2
a 36 48 6
a 48 36 6
a 37 49 1
a 49 37 1
a 37 38 8
a 38 37 8
a 38 50 7
a 50 38 7
a 38 39 10
a 39 38 10
a 39 51 3
a 51 39 3
a 39 40 9
a 40 39 9
a 40 52 7
a 52 40 7
a 40 41 9
a 41 40 9
a 41 53 9
a 53 41 9
a 41 42 5
a 42 41 5
a 42 54 5
a 54 42 5
a 42 43 8
a 43 42 8
a 43 55 4
a 55 43 4
a 43 44 9
a 44 43 9
a 44 56 10
a 56 44 10
a 44 45 2
a 45 44 2
a 45 57 10
a 57 45 10
a 45 46 9
a 46 45 9
a 46 58 8
a 58 46 8
a 46 47 5
a 47 46 5
a 47 59 5
a 59 47 5
a 47 48 8
a 48 47 8
a 48 60 6
a 60 48 6
a 49 61 5
a 61 49 5
a 49 50 1
a 50 49 1
a 50 62 4
a 62 50 4
a 50 51 3
a 51 50 3
a 51 63 4
a 63 51 4
a 51 52 10
a 52 51 10
a 52 64 4
a 64 52 4
a 52 53 9
a 53 52 9
a 53 65 10
a 65 53 10
a 53 54 9
a 54 53 9
a 54 66 2
a 66 54 2
a 54 55 9
a 55 54 9
a 55 67 9
a 67 55 9
a 55 56 5
a 56 55 5
a 56 68 10
a 68 56 10
a 56 57 5
a 57 56 5
a 57 69 2
a 69 57 2
a 57 58 1
a 58 57 1
a 58 70 5
a 70 58 5
a 58 59 7
a 59 58 7
a 59 71 4
a 71 59 4
a 59 60 10
a 60 59 10
a 60 72 4
a 72 60 4
a 61 73 10
a 73 61 10
a 61 62 10
a 62 61 10
a 62 74 5
a 74 62 5
a 62 63 6
a 63 62 6
a 63 75 8
a 75 63 8
a 63 64 3
a 64 63 3
a 64 76 8
a 76 64 8
a 64 65 1
a 65 64 1
a 65 77 7
a 77 65 7
a 65 66 10
a 66 65 10
a 66 78 6
a 78 66 6
a 66 67 3
a 67 66 3
a 67 79 3
a 79 67 3
a 67 68 6
a 68 67 6
a 68 80 5
a 80 68 5
a 68 69 8
a 69 68 8
a 69 81 4
a 81 69 4
a 69 70 10
a 70 69 10
a 70 82 4
a 82 70 4
a 70 71 6
a 71 70 6
a 71 83 3
a 83 71 3
a 71 72 1
a 72 71 1
a 72 84 9
a 84 72 9
a 73 85 7
a 85 73 7
a 73 74 3
a 74 73 3
a 74 86 7
a 86 74 7
a 74 75 10
a 75 74 10
a 75 87 4
a 87 75 4
a 75 76 9
a 76 75 9
a 76 88 6
a 88 76 6
a 76 77 5
a 77 76 5
a 77 89 8
a 89 77 8
a 77 78 7
a 78 77 7
a 78 90 9
a 90 78 9
a 78 79 4
a 79 78 4
a 79 91 9
a 91 79 9
a 79 80 5
a 80 79 5
a 80 92 1
a 92 80 1
a 80 81 5
a 81 80 5
a 81 93 8
a 93 81 8
a 81 82 7
a 82 81 7
a 82 94 3
a 94 82 3
a 82 83 1
a 83 82 1
a 83 95 6
a 95 83 6
a 83 84 4
a 84 83 4
a 84 96 2
a 96 84 2
a 85 97 9
a 97 85 9
a 85 86 9
a 86 85 9
a 86 98 6
a 98 86 6
a 86 87 7
a 87 86 7
a 87 99 2
a 99 87 2
a 87 88 5
a 88 87 5
a 88 100 3
a 100 88 3
a 88 89 9
a 89 88 9
a 89 101 4
a 101 89 4
a 89 90 5
a 90 89 5
a 90 102 5
a 102 90 5
a 90 91 3
a 91 90 3
a 91 103 5
a 103 91 5
a 91 92 5
a 92 91 5
a 92 104 8
a 104 92 8
a 92 93 8
a 93 92 8
a 93 105 3
a 105 93 3
a 93 94 2
a 94 93 2
a 94 106 1
a 106 94 1
a 94 95 3
a 95 94 3
a 95 107 10
a 107 95 10
a 95 96 1
a 96 95 1
a 96 108 2
a 108 96 2
a 97 109 2
a 109 97 2
a 97 98 3
a 98 97 3
a 98 110 3
a 110 98 3
a 98 99 8
a 99 98 8
a 99 111 4
a 111 99 4
a 99 100 1
a 100 99 1
a 100 112 5
a 112 100 5
a 100 101 8
a 101 100 8
a 101 113 2
a 113 101 2
a 101 102 5
a 102 101 5
a 102 114 7
a 114 102 7
a 102 103 8
a 103 102 8
a 103 115 8
a 115 103 8
a 103 104 5
a 104 103 5
a 104 116 7
a 116 104 7
a 104 105 7
a 105 104 7
a 105 117 8
a 117 105 8
a 105 106 5
a 106 105 5
a 106 118 10
a 118 106 10
a 106 107 2
a 107 106 2
a 107 119 1
a 119 107 1
a 107 108 10
a 108 107 10
a 108 120 1
a 120 108 1
a 109 121 8
a 121 109 8
a 109 110 6
a 110 109 6
a 110 122 8
a 122 110 8
a 110 111 5
a 111 110 5
a 111 123 7
a 123 111 7
a 111 112 9
a 112 111 9
a 112 124 8
a 124 112 8
a 112 113 5
a 113 112 5
a 113 125 6
a 125 113 6
a 113 114 6
a 114 113 6
a 114 126 6
a 126 114 6
a 114 115 8
a 115 114 8
a 115 127 2
a 127 115 2
a 115 116 9
a 116 115 9
a 116 128 1
a 128 116 1
a 116 117 7
a 117 116 7
a 117 129 5
a 129 117 5
a 117 118 6
a 118 117 6
a 118 130 5
a 130 118 5
a 118 119 3
a 119 118 3
a 119 131 4
a 131 119 4
a 119 120 10
a 120 119 10
a 120 132 8
a 132 120 8
a 121 133 9
a 133 121 9
a 121 122 1
a 122 121 1
a 122 134 10
a 134 122 10
a 122 123 4
a 123 122 4
a 123 135 9
a 135 123 9
a 123 124 6
a 124 123 6
a 124 136 2
a 136 124 2
a 124 125 8
a 125 124 8
a 125 137 9
a 137 125 9
a 125 126 2
a 126 125 2
a 126 138 5
a 138 126 5
a 126 127 4
a 127 126 4
a 127 139 3
a 139 127 3
a 127 128 2
a 128 127 2
a 128 140 1
a 140 128 1
a 128 129 10
a 129 128 10
a 129 141 10
a 141 129 10
a 129 130 2
a 130 129 2
a 130 142 7
a 142 130 7
a 130 131 2
a 131 130 2
a 131 143 10
a 143 131 10
a 131 132 1
a 132 131 1
a 132 144 3
a 144 132 3
a 133 134 9
a 134 133 9
a 134 135 4
a 135 134 4
a 135 136 6
a 136 135 6
a 136 137 1
a 137 136 1
a 137 138 7
a 138 137 7
a 138 139 6
a 139 138 6
a 139 140 8
a 140 139 8
a 140 141 9
a 141 140 9
a 141 142 9
a 142 141 9
a 142 143 5
a 143 142 5
a 143 144 6
a 144 143 6
